GLPSOL--GLPK LP/MIP Solver 5.0
Parameter(s) specified in the command line:
 --lp ../20_322.lp --log 20_322.log -o 20_322.txt
Reading problem data from '../20_322.lp'...
6521 rows, 12920 columns, 45140 non-zeros
6440 integer variables, all of which are binary
19467 lines were read
GLPK Integer Optimizer 5.0
6521 rows, 12920 columns, 45140 non-zeros
6440 integer variables, all of which are binary
Preprocessing...
6360 constraint coefficient(s) were reduced
6521 rows, 12900 columns, 45120 non-zeros
6440 integer variables, all of which are binary
Scaling...
 A: min|aij| =  1.543e-04  max|aij| =  4.000e+00  ratio =  2.592e+04
GM: min|aij| =  7.881e-02  max|aij| =  1.269e+01  ratio =  1.610e+02
EQ: min|aij| =  6.211e-03  max|aij| =  1.000e+00  ratio =  1.610e+02
2N: min|aij| =  4.938e-03  max|aij| =  1.770e+00  ratio =  3.585e+02
Constructing initial basis...
Size of triangular part is 6521
Solving LP relaxation...
GLPK Simplex Optimizer 5.0
6521 rows, 12900 columns, 45120 non-zeros
      0: obj =   4.000000000e+01 inf =   9.950e+01 (41)
Perturbing LP to avoid stalling [199]...
    419: obj =   1.281420607e-01 inf =   0.000e+00 (0)
Removing LP perturbation [1334]...
*  1334: obj =  -4.472133624e+00 inf =   9.783e-15 (0) 1
OPTIMAL LP SOLUTION FOUND
Integer optimization begins...
Long-step dual simplex will be used
+  1334: mip =     not found yet >=              -inf        (1; 0)
+  1341: >>>>>  -4.472133624e+00 >=  -4.472133624e+00 < 0.1% (8; 0)
+  1341: mip =  -4.472133624e+00 >=     tree is empty   0.0% (0; 15)
INTEGER OPTIMAL SOLUTION FOUND
Time used:   0.7 secs
Memory used: 19.0 Mb (19906764 bytes)
Writing MIP solution to '20_322.txt'...
